# SETS POPULATION
set S:= 1 2 3 4 5 6; # set of the production periods (in this case weeks, but they can represent hours, months, etc.)
# PARAMETERS POPULATION - Information about costs, demand and capacity for every period
param COST_PROD :=
1	5
2	8
3	6
4	6
5	7
6	6;
param COST_WAREHOUSING :=
1	0.2
2	0.3
3	0.2
4	0.25
5	0.3
6	0.4;
param CAPACITY :=
1	140
2	100
3	110
4	100
5	120
6	100;
param DEMAND :=
1	100
2	120
3	100
4	90
5	120
6	110;
param N := 6;
